9,4	0,0	16,8	12,5	0,0	0,0	0,0	0,0	0,0	12,5
9,0	14,8	0,0	6,2	6,1	0,0	0,0	9,4	0,0	0,0
0,0	0,0	5,7	0,0	12,6	11,3	0,0	0,0	18,6	0,0
9,7	0,0	16,8	0,0	0,0	0,0	6,6	0,0	0,0	0,0
0,0	16,7	0,0	13,5	12,8	0,0	0,0	14,3	0,0	0,0
0,0	14,1	15,5	0,0	16,1	8,6	0,0	0,0	11,2	0,0
0,0	6,8	0,0	19,1	0,0	0,0	5,7	0,0	0,0	10,8
5,4	0,0	17,4	0,0	0,0	0,0	0,0	0,0	0,0	19,5
0,0	17,3	0,0	13,1	11,9	0,0	0,0	10,8	0,0	0,0
0,0	0,0	9,1	0,0	0,0	5,5	13,7	0,0	0,0	17,3
									
3,4	3,5	4,0	4,2	4,4	3,3	4,6	5,0	4,6	3,1
